p tw 60 952
0 1
0 2
0 3
0 4
0 5
0 6
0 7
0 8
0 9
0 10
0 11
0 12
0 13
0 14
0 15
0 16
0 17
0 18
0 19
0 20
0 21
0 22
0 23
0 24
0 28
0 32
0 35
0 44
0 45
0 27
0 29
0 39
0 48
0 31
0 33
0 40
0 50
0 51
0 42
0 43
0 46
0 47
1 2
1 3
1 4
1 5
1 6
1 7
1 8
1 9
1 21
1 32
1 43
1 46
1 47
1 48
1 49
1 10
1 19
1 24
1 29
1 36
1 42
1 57
1 14
1 26
1 35
1 50
1 54
1 15
1 40
1 45
1 52
1 55
1 16
1 23
1 34
1 58
2 3
2 4
2 5
2 6
2 7
2 8
2 9
2 17
2 18
2 19
2 20
2 21
2 22
2 23
2 24
2 27
2 32
2 33
2 34
2 35
2 36
2 37
2 10
2 14
2 15
2 28
2 44
2 45
2 12
2 38
2 52
2 46
2 59
2 26
2 48
2 50
2 51
2 53
2 29
2 39
2 49
3 4
3 5
3 6
3 7
3 8
3 9
3 10
3 11
3 12
3 13
3 14
3 15
3 16
3 27
3 32
3 33
3 34
3 35
3 36
3 37
3 23
3 31
3 39
3 40
3 50
3 51
3 19
3 22
3 38
3 41
3 56
3 17
3 26
3 48
3 53
3 57
3 58
4 5
4 6
4 7
4 8
4 9
4 10
4 11
4 12
4 13
4 14
4 15
4 16
4 27
4 32
4 33
4 34
4 35
4 36
4 37
4 19
4 20
4 21
4 38
4 52
4 17
4 26
4 48
4 50
4 51
4 53
4 18
4 24
4 28
4 30
4 57
4 58
5 6
5 7
5 8
5 9
5 16
5 19
5 27
5 29
5 35
5 39
5 45
5 48
5 18
5 23
5 24
5 37
5 40
5 46
5 55
5 12
5 20
5 21
5 36
5 38
5 52
5 10
5 42
5 49
5 57
5 14
5 15
5 59
5 32
5 41
5 17
5 22
5 31
5 56
5 28
5 30
5 58
6 7
6 8
6 9
6 16
6 25
6 26
6 27
6 28
6 29
6 30
6 31
6 21
6 32
6 43
6 46
6 47
6 48
6 49
6 14
6 15
6 18
6 36
6 59
7 8
7 9
7 17
7 18
7 20
7 22
7 27
7 35
7 36
7 37
7 52
7 14
7 19
7 38
7 39
7 41
7 56
7 26
7 29
7 44
7 42
7 50
7 54
7 10
7 43
7 45
7 46
7 47
7 15
7 31
7 49
8 9
8 21
8 32
8 43
8 46
8 47
8 48
8 49
8 10
8 11
8 14
8 16
8 20
8 23
8 36
8 58
8 12
8 22
8 26
8 27
8 34
8 44
8 57
8 59
8 29
8 35
8 51
8 18
8 19
8 41
8 52
8 42
8 50
8 54
9 16
9 25
9 26
9 27
9 28
9 29
9 30
9 31
9 12
9 13
9 19
9 24
9 35
9 36
9 52
9 53
9 54
9 44
9 46
9 49
9 51
9 23
9 34
9 40
9 57
9 58
10 11
10 12
10 13
10 14
10 15
10 16
10 28
10 32
10 35
10 44
10 45
10 19
10 24
10 29
10 36
10 42
10 49
10 57
10 20
10 23
10 43
10 58
10 17
10 46
10 47
10 40
10 52
10 55
10 22
10 31
10 56
11 12
11 13
11 14
11 15
11 16
11 23
11 31
11 33
11 39
11 40
11 50
11 51
11 20
11 36
11 43
11 58
12 13
12 14
12 15
12 16
12 19
12 24
12 35
12 36
12 52
12 53
12 54
12 20
12 21
12 38
12 22
12 26
12 27
12 34
12 44
12 57
12 58
12 59
12 17
12 48
12 50
12 51
12 28
12 43
12 18
12 23
12 29
12 32
12 41
13 14
13 15
13 16
13 19
13 24
13 35
13 36
13 52
13 53
13 54
14 15
14 16
14 28
14 32
14 35
14 44
14 45
14 19
14 22
14 37
14 38
14 39
14 41
14 56
14 20
14 23
14 36
14 43
14 58
14 18
14 27
14 46
14 59
14 26
14 29
14 42
14 50
14 54
14 17
14 47
15 16
15 28
15 32
15 35
15 44
15 45
15 18
15 27
15 36
15 46
15 59
15 40
15 49
15 52
15 55
15 17
15 22
15 29
15 31
15 56
16 25
16 26
16 27
16 28
16 29
16 30
16 31
16 19
16 35
16 39
16 45
16 48
16 20
16 23
16 36
16 43
16 58
16 34
16 40
16 57
17 18
17 19
17 20
17 21
17 22
17 23
17 24
17 27
17 35
17 36
17 37
17 52
17 26
17 48
17 50
17 51
17 53
17 42
17 43
17 45
17 46
17 47
17 29
17 31
17 49
17 56
18 19
18 20
18 21
18 22
18 23
18 24
18 37
18 39
18 40
18 46
18 55
18 27
18 35
18 36
18 52
18 59
18 29
18 32
18 41
18 28
18 30
18 38
18 57
18 58
19 20
19 21
19 22
19 23
19 24
19 27
19 29
19 35
19 39
19 45
19 48
19 36
19 52
19 53
19 54
19 37
19 40
19 46
19 55
19 38
19 41
19 56
19 42
19 49
19 57
19 26
19 44
19 28
19 43
19 58
19 32
20 21
20 22
20 23
20 24
20 36
20 38
20 39
20 40
20 41
20 42
20 43
20 52
20 27
20 35
20 37
20 58
20 26
20 28
20 57
21 22
21 23
21 24
21 36
21 38
21 39
21 40
21 41
21 42
21 43
21 32
21 46
21 47
21 48
21 49
21 52
22 23
22 24
22 36
22 38
22 39
22 40
22 41
22 42
22 43
22 27
22 35
22 37
22 52
22 56
22 26
22 34
22 44
22 57
22 58
22 59
22 29
22 31
22 49
23 24
23 31
23 33
23 39
23 40
23 50
23 51
23 37
23 46
23 55
23 36
23 43
23 58
23 29
23 32
23 41
23 52
23 26
23 34
23 57
24 35
24 36
24 52
24 53
24 54
24 37
24 39
24 40
24 46
24 55
24 29
24 42
24 49
24 57
24 26
24 28
24 43
24 58
24 30
24 32
24 38
25 26
25 27
25 28
25 29
25 30
25 31
26 27
26 28
26 29
26 30
26 31
26 34
26 44
26 57
26 58
26 59
26 48
26 50
26 51
26 53
26 36
26 39
26 52
26 35
26 46
26 49
26 43
26 42
26 54
26 40
27 28
27 29
27 30
27 31
27 32
27 33
27 34
27 35
27 36
27 37
27 39
27 45
27 48
27 52
27 44
27 57
27 58
27 59
27 46
28 29
28 30
28 31
28 32
28 35
28 44
28 45
28 43
28 52
28 57
28 58
28 38
29 30
29 31
29 35
29 39
29 45
29 48
29 36
29 42
29 49
29 57
29 44
29 52
29 46
29 51
29 32
29 41
29 50
29 54
29 56
30 31
30 32
30 38
30 57
30 58
31 33
31 39
31 40
31 50
31 51
31 49
31 56
32 33
32 34
32 35
32 36
32 37
32 44
32 45
32 43
32 46
32 47
32 48
32 49
32 41
32 52
32 40
32 55
32 38
32 57
32 58
33 34
33 35
33 36
33 37
33 39
33 40
33 50
33 51
34 35
34 36
34 37
34 44
34 57
34 58
34 59
34 40
35 36
35 37
35 44
35 45
35 39
35 48
35 52
35 53
35 54
35 46
35 49
35 51
35 42
35 50
35 40
35 55
36 37
36 38
36 39
36 40
36 41
36 42
36 43
36 52
36 53
36 54
36 49
36 57
36 58
36 46
36 59
36 44
37 39
37 40
37 46
37 55
37 52
37 38
37 41
37 56
38 39
38 40
38 41
38 42
38 43
38 52
38 56
38 57
38 58
39 40
39 41
39 42
39 43
39 45
39 48
39 50
39 51
39 46
39 55
39 56
39 44
39 52
40 41
40 42
40 43
40 50
40 51
40 46
40 55
40 45
40 49
40 52
40 57
40 58
41 42
41 43
41 56
41 52
42 43
42 49
42 57
42 50
42 54
42 45
42 46
42 47
43 46
43 47
43 48
43 49
43 58
43 52
43 57
43 45
44 45
44 57
44 58
44 59
44 52
44 46
44 49
44 51
45 48
45 46
45 47
45 49
45 52
45 55
46 47
46 48
46 49
46 55
46 59
46 51
47 48
47 49
48 49
48 50
48 51
48 53
49 57
49 51
49 52
49 55
49 56
50 51
50 53
50 54
51 53
52 53
52 54
52 57
52 58
52 55
53 54
57 58
57 59
58 59
